! uhf sto-3g verytightscf hcore nousesym

* xyz 0 2
H 0.000 0.000 0.000
O 0.000 0.000 0.9697
*

%eprnmr
 ori centerofnuccharge
 gtensor 1
 end
